&input fildyn='dmat.BN-5rho', asr='crystal' /
