SystemName            nzeta
SystemLabel           nzeta
NumberOfSpecies         2
NumberOfAtoms          16
%block Chemical_Species_label
   1   5     B
   2   7     N
%endblock Chemical_Species_label
PAO.BasisType         split
PAO.BasisSize         DZP
PAO.EnergyShift       50  meV
LatticeConstant      1.0   Ang
#%block LatticeParameters
#4.7890    4.7890    4.1537   90.0000   90.0000  120.0000
#%endblock LatticeParameters
%block LatticeVectors
    5.012954616    0.000024807    0.000000115
   -2.506455827    4.341358452   -0.000000115
    0.000000145   -0.000000085    6.336166021
%endblock LatticeVectors
MeshCutoff            200. Ry       # Mesh cutoff. real space mesh
kgrid_cutoff        20. Ang
#%block kgrid_Monkhorst_Pack
# 1  0  0  0.0
# 0  1  0  0.0
# 0  0  1  0.0
#%endblock kgrid_Monkhorst_Pack
#
BandLinesScale  pi/a
#

XC.Functional          GGA
XC.Authors             PBE
MaxSCFIterations       200
DM.NumberPulay         10           # One Pulay every 5 iter
DM.MixingWeight       0.30          # New DM amount for next SCF cycle
DM.Tolerance          1.0d-5        # Tolerance in maximum difference
DM.UseSaveDM          true          # to use continuae..ion files

Diag.DivideAndConquer   false
Diag.ParallelOverK      true

SolutionMethod        diagon        # OrderN or Diagon
ElectronicTemperature  25 meV       # Temp. for Fermi smearing
# SpinPolarized         true

# MD options
MD.VariableCell        TRUE
MD.TypeOfRun           CG
MD.NumCGsteps          100
MD.MaxCGDispl          0.01 Ang
MD.MaxForceTol         0.008 eV/Ang

MD.TargetPressure      5.0 GPa
MD.MaxStressTol        0.05 GPa

%block AtomicCoordinateOrigin
0.000 0.000 0.000
%endblock AtomicCoordinateOrigin

WriteDM                true
WriteEigenvalues       true

WriteCoorXmol          true
WriteMDXmol            true
WriteMDHistory         true
WriteXml               false

MD.UseSaveCG           true
MD.UseSaveXV           true

# Atomic  inates
AtomicCoordinatesFormat  Ang    # Format for  inates
AtomCoorFormatOut        Ang

%block AtomicCoordinatesAndAtomicSpecies
 0.00002     1.44712     1.38428     1
 1.25323     0.72357     4.55189     1
 0.00002     1.44712     4.95195     2
 1.25323     0.72357     1.78422     2
 2.50649     1.44713     1.38428     1
 3.75971     0.72359     4.55189     1
 2.50649     1.44713     4.95195     2
 3.75971     0.72359     1.78422     2
-1.25321     3.61780     1.38428     1
 0.00001     2.89425     4.55189     1
-1.25321     3.61780     4.95195     2
 0.00001     2.89425     1.78422     2
 1.25327     3.61781     1.38428     1
 2.50648     2.89426     4.55189     1
 1.25327     3.61781     4.95195     2
 2.50648     2.89426     1.78422     2
%endblock AtomicCoordinatesAndAtomicSpecies
